 System empty                           
   1.00000000000000     
     4.5937299999999999    0.0000000000000000    0.0000000000000000
     0.0000000000000000    4.5937299999999999    0.0000000000000000
     0.0000000000000000    0.0000000000000000    2.9581200000000001
   O    Ti
     4     2
Direct
  0.3381127254489212  0.3500992827006613  0.9977450651809554
  0.6743823237910583  0.6541336551290819  0.0047918434486621
  0.1408379283280559  0.8595904174489125  0.5180358916322921
  0.8237259789392365  0.1784536090233506  0.5176926411212825
  0.9998471093802780  0.9879442293367966  0.9948399010941557
  0.5078190705671666  0.4979281301278630  0.4923729839908259
 
  0.85228440E-02  0.18270303E-01  0.46274291E-02
 -0.56307294E-02 -0.54256254E-02  0.25888561E-02
 -0.11414139E-01  0.15561670E-01  0.15524476E-02
  0.37244704E-03  0.11808008E-02  0.52912763E-02
 -0.23204595E-02 -0.45632829E-02 -0.16049786E-02
  0.50437938E-02 -0.53238175E-02 -0.30934372E-02
 
           1
   1.50000000000000     
  0.10995026E+01  0.23406318E-01 -0.57107482E-19  0.00000000E+00
  0.34089571E+00  0.35606512E+00  0.91536463E-04
  0.67254371E+00  0.65236201E+00  0.61045975E-02
  0.13711085E+00  0.86467180E+00  0.51882310E+00
  0.82384759E+00  0.17883918E+00  0.52037574E+00
  0.99908941E+00  0.98645417E+00  0.99402605E+00
  0.50946603E+00  0.49618973E+00  0.49080437E+00
  0.33195302E-02  0.60711480E-02  0.21141752E-02
 -0.23042694E-02 -0.25167170E-02  0.12228684E-02
 -0.45887280E-02  0.57314867E-02  0.11285358E-02
  0.63898192E-03 -0.20441275E-03  0.25377177E-02
 -0.56412081E-03 -0.15089420E-02 -0.85306258E-03
  0.15447341E-02 -0.15258132E-02 -0.14872205E-02
  0.00000000E+00  0.00000000E+00  0.00000000E+00
  0.00000000E+00  0.00000000E+00  0.00000000E+00
  0.00000000E+00  0.00000000E+00  0.00000000E+00
  0.00000000E+00  0.00000000E+00  0.00000000E+00
  0.00000000E+00  0.00000000E+00  0.00000000E+00
  0.00000000E+00  0.00000000E+00  0.00000000E+00
