 System empty
1.000
  4.59373000e+00  0.00000000e+00  0.00000000e+00
  0.00000000e+00  4.59373000e+00  0.00000000e+00
  0.00000000e+00  0.00000000e+00  2.95812000e+00
4 2
direct
  3.05300000e-01  3.05300000e-01  0.00000000e+00
  6.94700000e-01  6.94700000e-01  0.00000000e+00
  1.94700000e-01  8.05300000e-01  5.00000000e-01
  8.05300000e-01  1.94700000e-01  5.00000000e-01
  0.00000000e+00  0.00000000e+00  0.00000000e+00
  5.00000000e-01  5.00000000e-01  5.00000000e-01
